benchmarks_CP/INST_36x36/35/inst36x36_35_11.dzn
S=6;
start=[|
1,	-1,	-1,	-1,	10,	-1,	-1,	-1,	-1,	-1,	-1,	11,	9,	3,	-1,	-1,	33,	-1,	21,	-1,	-1,	24,	-1,	-1,	-1,	-1,	-1,	-1,	-1,	35,	-1,	-1,	28,	-1,	29,	-1|
8,	27,	2,	-1,	-1,	13,	-1,	34,	-1,	17,	7,	24,	32,	10,	-1,	14,	-1,	35,	-1,	-1,	3,	6,	-1,	28,	-1,	25,	-1,	-1,	-1,	29,	21,	-1,	-1,	-1,	33,	26|
34,	21,	-1,	11,	-1,	32,	35,	-1,	-1,	-1,	-1,	28,	-1,	-1,	-1,	1,	-1,	27,	-1,	17,	-1,	-1,	-1,	-1,	-1,	-1,	9,	14,	-1,	-1,	12,	36,	-1,	-1,	18,	-1|
-1,	9,	-1,	-1,	4,	33,	32,	-1,	12,	-1,	-1,	-1,	-1,	21,	22,	-1,	-1,	31,	8,	-1,	-1,	-1,	26,	-1,	-1,	7,	-1,	28,	-1,	-1,	6,	-1,	2,	-1,	-1,	-1|
-1,	-1,	-1,	-1,	-1,	7,	-1,	-1,	-1,	-1,	-1,	-1,	-1,	8,	25,	-1,	-1,	-1,	10,	-1,	-1,	-1,	27,	-1,	-1,	-1,	-1,	2,	13,	-1,	4,	24,	-1,	-1,	35,	22|
24,	-1,	-1,	-1,	28,	36,	-1,	-1,	-1,	-1,	10,	-1,	7,	-1,	-1,	-1,	-1,	-1,	-1,	-1,	20,	9,	-1,	-1,	21,	12,	-1,	-1,	27,	-1,	-1,	8,	-1,	14,	-1,	25|
31,	10,	-1,	1,	-1,	-1,	-1,	-1,	32,	19,	-1,	36,	22,	-1,	8,	-1,	35,	2,	-1,	-1,	-1,	-1,	-1,	-1,	7,	-1,	-1,	-1,	23,	-1,	9,	-1,	-1,	29,	-1,	-1|
23,	-1,	-1,	29,	-1,	-1,	-1,	-1,	-1,	-1,	-1,	-1,	1,	4,	9,	-1,	-1,	5,	-1,	-1,	-1,	11,	-1,	35,	12,	34,	8,	-1,	-1,	17,	24,	-1,	-1,	32,	-1,	33|
-1,	-1,	-1,	36,	-1,	25,	-1,	-1,	4,	-1,	-1,	-1,	-1,	31,	-1,	12,	19,	-1,	-1,	-1,	-1,	-1,	-1,	-1,	11,	28,	6,	-1,	20,	-1,	-1,	-1,	-1,	13,	-1,	16|
-1,	-1,	21,	6,	-1,	-1,	29,	27,	20,	-1,	18,	12,	30,	-1,	-1,	-1,	15,	33,	36,	-1,	31,	32,	14,	-1,	-1,	-1,	-1,	19,	-1,	-1,	28,	-1,	-1,	3,	23,	-1|
-1,	-1,	-1,	-1,	13,	-1,	-1,	2,	-1,	-1,	-1,	8,	-1,	17,	-1,	24,	-1,	-1,	-1,	-1,	19,	-1,	-1,	-1,	-1,	-1,	29,	9,	-1,	36,	-1,	12,	20,	31,	-1,	-1|
26,	8,	15,	27,	-1,	-1,	10,	17,	6,	-1,	-1,	14,	-1,	28,	21,	-1,	18,	-1,	-1,	13,	-1,	-1,	-1,	-1,	3,	-1,	-1,	1,	-1,	-1,	-1,	-1,	-1,	-1,	7,	-1|
29,	-1,	-1,	4,	24,	-1,	-1,	18,	-1,	16,	13,	-1,	33,	-1,	5,	30,	-1,	8,	-1,	23,	-1,	17,	-1,	-1,	-1,	-1,	7,	-1,	-1,	-1,	11,	-1,	-1,	-1,	2,	-1|
-1,	-1,	-1,	2,	-1,	-1,	-1,	-1,	28,	-1,	22,	30,	26,	23,	7,	-1,	-1,	-1,	11,	-1,	-1,	-1,	5,	1,	-1,	29,	34,	27,	-1,	-1,	15,	-1,	24,	-1,	31,	-1|
-1,	-1,	-1,	14,	33,	-1,	31,	15,	-1,	7,	-1,	2,	-1,	36,	-1,	-1,	-1,	-1,	-1,	35,	-1,	-1,	32,	-1,	-1,	-1,	-1,	-1,	-1,	-1,	-1,	-1,	16,	-1,	-1,	-1|
-1,	-1,	-1,	-1,	23,	16,	-1,	-1,	17,	-1,	-1,	-1,	-1,	-1,	-1,	-1,	-1,	15,	31,	-1,	-1,	-1,	4,	7,	30,	-1,	-1,	-1,	-1,	-1,	-1,	-1,	27,	-1,	-1,	28|
-1,	-1,	8,	-1,	32,	-1,	-1,	11,	3,	-1,	-1,	-1,	-1,	14,	-1,	-1,	-1,	-1,	-1,	16,	-1,	-1,	22,	-1,	33,	-1,	-1,	-1,	5,	-1,	-1,	7,	13,	4,	-1,	-1|
-1,	26,	-1,	-1,	-1,	5,	-1,	-1,	10,	-1,	8,	-1,	2,	27,	-1,	22,	3,	-1,	-1,	-1,	13,	-1,	24,	-1,	-1,	-1,	-1,	-1,	36,	4,	-1,	-1,	23,	-1,	19,	-1|
-1,	-1,	-1,	-1,	2,	-1,	-1,	-1,	-1,	8,	-1,	-1,	28,	-1,	-1,	-1,	29,	-1,	30,	36,	16,	-1,	-1,	-1,	-1,	-1,	-1,	6,	-1,	3,	13,	10,	22,	-1,	-1,	-1|
-1,	-1,	-1,	-1,	-1,	-1,	18,	-1,	-1,	-1,	-1,	-1,	-1,	-1,	-1,	-1,	-1,	-1,	25,	12,	24,	-1,	-1,	22,	23,	-1,	-1,	-1,	34,	-1,	5,	-1,	-1,	16,	-1,	-1|
-1,	12,	-1,	19,	-1,	24,	15,	-1,	-1,	23,	-1,	-1,	8,	34,	31,	7,	16,	-1,	-1,	10,	-1,	3,	33,	-1,	-1,	22,	5,	-1,	-1,	-1,	1,	-1,	-1,	-1,	9,	29|
-1,	-1,	-1,	-1,	-1,	11,	-1,	-1,	-1,	-1,	25,	16,	13,	-1,	-1,	23,	-1,	12,	-1,	-1,	2,	21,	19,	-1,	-1,	31,	-1,	-1,	7,	1,	32,	17,	-1,	-1,	3,	4|
-1,	-1,	-1,	-1,	14,	-1,	9,	-1,	-1,	-1,	-1,	-1,	-1,	-1,	-1,	3,	-1,	-1,	35,	26,	-1,	-1,	-1,	-1,	36,	-1,	15,	29,	28,	-1,	-1,	-1,	12,	-1,	11,	-1|
17,	-1,	-1,	-1,	-1,	-1,	-1,	-1,	-1,	-1,	24,	10,	-1,	-1,	-1,	21,	-1,	-1,	27,	-1,	-1,	-1,	-1,	5,	-1,	-1,	-1,	-1,	-1,	-1,	-1,	-1,	-1,	-1,	-1,	20|
32,	-1,	-1,	-1,	11,	-1,	-1,	26,	-1,	-1,	-1,	-1,	-1,	-1,	33,	-1,	-1,	-1,	-1,	-1,	-1,	16,	-1,	14,	-1,	-1,	-1,	-1,	35,	-1,	-1,	-1,	-1,	-1,	-1,	36|
-1,	-1,	26,	10,	-1,	-1,	17,	-1,	-1,	-1,	-1,	-1,	36,	18,	-1,	-1,	-1,	-1,	-1,	-1,	29,	-1,	9,	-1,	-1,	11,	-1,	-1,	-1,	-1,	23,	-1,	-1,	-1,	-1,	-1|
-1,	-1,	-1,	-1,	-1,	2,	11,	-1,	-1,	-1,	-1,	3,	-1,	5,	-1,	28,	-1,	-1,	-1,	4,	-1,	-1,	-1,	-1,	-1,	-1,	-1,	-1,	10,	-1,	-1,	14,	35,	-1,	-1,	-1|
-1,	5,	-1,	-1,	-1,	-1,	-1,	33,	18,	-1,	-1,	23,	-1,	7,	17,	-1,	-1,	-1,	-1,	-1,	21,	-1,	-1,	12,	31,	26,	-1,	-1,	-1,	-1,	10,	29,	-1,	-1,	-1,	-1|
13,	-1,	-1,	-1,	21,	-1,	-1,	-1,	36,	-1,	-1,	-1,	3,	1,	-1,	-1,	-1,	-1,	-1,	-1,	6,	-1,	-1,	-1,	-1,	14,	28,	20,	-1,	12,	16,	-1,	34,	26,	15,	-1|
36,	29,	-1,	35,	-1,	-1,	34,	4,	-1,	-1,	20,	-1,	-1,	-1,	12,	2,	-1,	-1,	18,	-1,	-1,	26,	-1,	-1,	16,	-1,	-1,	-1,	-1,	-1,	-1,	33,	-1,	-1,	5,	-1|
-1,	18,	-1,	-1,	22,	-1,	13,	9,	-1,	-1,	-1,	-1,	-1,	-1,	-1,	-1,	-1,	23,	-1,	-1,	35,	-1,	-1,	36,	-1,	2,	-1,	-1,	3,	-1,	14,	-1,	-1,	-1,	-1,	-1|
4,	13,	-1,	-1,	36,	-1,	-1,	-1,	35,	14,	-1,	5,	-1,	-1,	-1,	-1,	10,	22,	1,	33,	-1,	-1,	-1,	-1,	-1,	-1,	-1,	-1,	24,	-1,	8,	11,	3,	-1,	20,	-1|
-1,	2,	-1,	-1,	-1,	14,	-1,	30,	-1,	-1,	-1,	33,	-1,	-1,	-1,	26,	32,	-1,	-1,	-1,	-1,	-1,	-1,	6,	19,	36,	-1,	31,	-1,	21,	-1,	-1,	-1,	18,	16,	-1|
-1,	-1,	-1,	24,	-1,	-1,	-1,	28,	-1,	-1,	15,	-1,	-1,	25,	-1,	-1,	-1,	-1,	4,	-1,	23,	-1,	21,	-1,	-1,	-1,	-1,	-1,	-1,	-1,	-1,	32,	10,	-1,	30,	-1|
-1,	-1,	-1,	7,	-1,	-1,	-1,	-1,	-1,	3,	34,	-1,	-1,	-1,	16,	9,	24,	-1,	-1,	25,	32,	-1,	18,	-1,	27,	-1,	-1,	8,	15,	-1,	36,	-1,	33,	-1,	28,	-1|
-1,	-1,	-1,	-1,	-1,	1,	2,	-1,	-1,	-1,	-1,	-1,	-1,	-1,	-1,	-1,	-1,	-1,	26,	3,	5,	-1,	-1,	-1,	-1,	-1,	11,	-1,	-1,	-1,	-1,	-1,	-1,	-1,	-1,	-1|];
